c read Graph
c width = 212
c time = 298 ms
c width = 20
c time = 649 ms
c width = 19
c time = 898 ms
c width = 18
c time = 5276 ms
c width = 17
c time = 8491 ms
c width = 16
c time = 13972 ms
c width = 15
c time = 18656 ms
c width = 15
c time = 19953 ms
s td 196 16 225
b 1 1 2 16
b 2 2 3 16 17
b 3 13 14 29 30
b 4 3 16 17 31
b 5 13 29 30 45
b 6 181 196 197 212
b 7 195 209 210 224
b 8 181 197 212 213
b 9 195 209 223 224
b 10 3 4 5 19
b 11 3 5 18 19 32 46
b 12 5 18 19 32 34 46 48
b 13 5 19 32 34 46 48 62
b 14 5 19 34 46 48 62 76
b 15 5 19 21 34 35 48 62 76
b 16 5 19 20 21 35
b 17 5 21 34 35 48 50 62 64 76
b 18 5 21 35 48 50 62 64 76 78
b 19 48 62 63 64 78
b 20 5 21 35 50 62 64 76 78 92
b 21 62 76 77 78 92
b 22 5 21 35 37 50 51 64 76 78 92
b 23 5 21 37 50 51 64 67 76 78 82 92 94 96 110
b 24 50 51 64 67 78 80 82 94 96 110
b 25 80 94 95 96 110
b 26 64 78 79 80 94
b 27 50 51 64 66 67 80 82 96
b 28 66 80 81 82 96
b 29 50 64 65 66 80
b 30 5 21 37 51 53 67 76 78 82 92 94 96 110
b 31 5 21 37 53 67 76 78 82 92 94 96 110 124 136 138 152
b 32 76 78 92 94 108 110 124 136 138 152
b 33 76 92 108 122 124 136 138 152
b 34 108 122 123 124 138
b 35 122 136 137 138 152
b 36 76 92 106 108 122 136
b 37 106 121 122 136
b 38 92 106 107 108 122
b 39 76 91 92 106
b 40 78 92 93 94 108
b 41 94 108 109 110 124
b 42 5 9 21 25 37 39 53 67 82 96 110 124 136 138 152
b 43 9 13 25 27 37 39 41 53 67 82 96 110 124 136 138 152
b 44 13 25 27 37 39 40 41 53 67 82 96 110 124 136 138 152
b 45 13 27 28 39 40 41 42 53 67 82 96 110 124 136 138 152
b 46 13 28 39 40 41 42 53 54 67 82 96 110 124 136 138 152
b 47 13 28 40 41 42 53 54 55 67 82 96 110 124 136 138 152
b 48 13 28 41 42 53 54 55 56 67 82 96 110 124 136 138 152
b 49 13 28 42 53 54 55 56 67 68 82 96 110 124 136 138 152
b 50 13 28 42 54 55 56 67 68 69 82 96 110 124 136 138 152
b 51 13 28 42 55 56 67 68 69 70 82 96 110 124 136 138 152
b 52 13 28 29 42 45 56 68 69 70 82 96 110 124 136 138 152
b 53 28 29 42 43 45 56 68 69 70 82 96 110 124 136 138 152
b 54 29 42 43 44 45 56 68 69 70 82 96 110 124 136 138 152
b 55 42 43 44 45 56 58 68 69 70 82 96 110 124 136 138 152
b 56 42 44 45 56 58 68 69 70 72 82 96 110 124 136 138 152
b 57 44 45 56 58 59 68 69 70 72 82 96 110 124 136 138 152
b 58 45 56 58 59 60 68 69 70 72 82 96 110 124 136 138 152
b 59 56 58 59 60 68 69 70 71 72 82 96 110 124 136 138 152
b 60 58 59 60 68 69 70 71 72 73 82 96 110 124 136 138 152
b 61 59 60 68 69 70 71 72 73 74 82 96 110 124 136 138 152
b 62 60 68 69 70 71 72 73 74 82 83 96 110 124 136 138 152
b 63 60 69 70 71 72 73 74 82 83 84 96 110 124 136 138 152
b 64 60 70 71 72 73 74 82 83 84 86 96 110 124 136 138 152
b 65 60 70 72 73 74 82 83 84 86 88 96 110 124 136 138 152
b 66 60 70 72 74 82 83 84 86 88 96 98 110 124 136 138 152
b 67 60 70 72 74 82 84 86 88 96 98 100 110 124 136 138 152
b 68 60 72 74 82 84 86 88 96 98 100 102 110 124 136 138 152
b 69 60 74 82 84 86 88 96 98 100 102 110 112 124 136 138 152
b 70 60 74 84 86 88 96 98 100 102 110 112 114 124 136 138 152
b 71 60 74 86 88 96 98 100 102 110 112 114 116 124 136 138 152
b 72 60 74 88 96 98 100 102 110 112 114 116 124 126 136 138 152
b 73 60 74 88 98 100 102 110 112 114 116 124 126 128 136 138 152
b 74 60 74 88 100 102 110 112 114 116 124 126 128 130 136 138 152
b 75 60 74 88 102 110 112 114 116 124 126 128 130 136 138 140 152
b 76 60 74 88 102 112 114 116 124 126 128 130 136 138 140 142 152
b 77 60 74 88 102 114 116 124 126 128 130 136 138 140 142 144 152
b 78 60 74 88 102 116 124 126 128 130 136 138 140 142 144 152 154
b 79 60 74 88 102 116 126 128 130 136 138 140 142 144 152 154 156
b 80 60 74 88 102 116 128 130 136 138 140 142 144 152 154 156 158
b 81 60 74 88 102 116 130 136 138 140 142 144 152 154 156 158 168
b 82 60 74 88 102 116 130 136 140 142 144 152 154 156 158 168 170
b 83 60 74 88 102 116 130 136 142 144 152 154 156 158 168 170 172
b 84 60 74 88 102 116 130 136 144 152 154 156 158 168 170 172 184
b 85 60 74 88 102 116 130 136 144 152 156 158 168 170 172 184 186
b 86 60 74 88 102 116 130 136 144 152 158 168 170 172 184 186 200
b 87 60 74 88 102 116 130 136 144 152 158 168 172 184 186 200 216
b 88 60 74 88 102 116 120 130 132 134 144 148 158 172 186 200 216
b 89 60 74 88 102 116 118 120 132 134 148
b 90 102 116 117 118 132
b 91 60 74 88 102 104 118 120 134
b 92 60 74 88 90 104 120
b 93 60 74 75 90
b 94 90 104 105 120
b 95 74 88 89 90 104
b 96 104 118 119 120 134
b 97 88 102 103 104 118
b 98 118 132 133 134 148
b 99 136 152 168 184 200 214 216
b 100 136 152 166 168 184 200 214
b 101 152 166 168 184 198 200 214
b 102 184 198 199 200 214
b 103 152 166 168 182 184 198 214
b 104 166 182 198 213 214
b 105 166 181 182 198 213
b 106 181 182 197 198 213
b 107 152 166 167 168 182
b 108 168 182 183 184 198
b 109 136 151 152 166
b 110 200 214 215 216
b 111 170 184 185 186 200
b 112 156 170 171 172 186
b 113 154 168 169 170 184
b 114 142 156 157 158 172
b 115 140 154 155 156 170
b 116 138 152 153 154 168
b 117 128 142 143 144 158
b 118 126 140 141 142 156
b 119 124 138 139 140 154
b 120 114 128 129 130 144
b 121 112 126 127 128 142
b 122 110 124 125 126 140
b 123 100 114 115 116 130
b 124 98 112 113 114 128
b 125 96 110 111 112 126
b 126 86 100 101 102 116
b 127 84 98 99 100 114
b 128 82 96 97 98 112
b 129 72 86 87 88 102
b 130 70 84 85 86 100
b 131 42 56 57 58 72
b 132 9 11 13 25 27 41
b 133 9 10 11 25
b 134 11 25 26 27 41
b 135 11 12 13 27
b 136 5 9 21 23 25 37 39 53
b 137 23 37 38 39 53
b 138 9 23 24 25 39
b 139 5 7 9 21 23 37
b 140 7 8 9 23
b 141 7 21 22 23 37
b 142 5 6 7 21
b 143 37 51 52 53 67
b 144 21 35 36 37 51
b 145 34 48 49 50 64
b 146 46 61 62 76
b 147 32 46 47 48 62
b 148 18 32 33 34 48
b 149 3 18 31 32 46
b 150 3 17 18 31 32
b 151 172 186 188 200 202 204 216 220
b 152 120 134 144 148 158 160 162 172 176 188 190 204 220
b 153 116 120 130 132 134 144 148 158 160 162 172 176 186 200 216
b 154 120 134 144 148 158 160 162 172 176 186 188 200 204 216 220
b 155 172 176 186 188 200 204 216 220
b 156 144 158 160 172 174 176 188 190 204
b 157 174 188 189 190 204
b 158 160 174 175 176 190
b 159 144 158 159 160 174
b 160 158 172 173 174 188
b 161 186 200 201 202 216
b 162 188 202 204 216 218 220
b 163 204 218 219 220
b 164 188 202 203 204 218
b 165 202 216 217 218
b 166 172 186 187 188 202
b 167 116 130 132 144 146 148 160 162 176
b 168 132 146 147 148 162
b 169 116 130 131 132 146
b 170 130 144 145 146 160
b 171 146 160 161 162 176
b 172 120 134 148 162 164 176 180 190 204 220
b 173 120 134 148 150 164 180
b 174 120 134 135 150
b 175 150 164 165 180
b 176 134 148 149 150 164
b 177 148 162 164 176 180 190 204 206 220
b 178 190 204 205 206 220
b 179 148 162 164 176 180 190 192 206 220
b 180 148 162 164 176 178 180 192 206 220
b 181 148 162 163 164 178
b 182 162 176 177 178 192
b 183 164 178 180 192 206 220 222
b 184 164 178 180 192 206 208 222
b 185 192 206 207 208 222
b 186 164 178 180 192 194 208 222
b 187 178 192 193 194 208
b 188 164 178 179 180 194
b 189 180 194 208 222 223
b 190 180 194 195 208 223
b 191 194 195 208 209 223
b 192 206 220 221 222
b 193 176 190 191 192 206
b 194 210 224 225
b 195 196 211 212
b 196 14 15 30
1 2
2 4
3 196
3 5
4 150
5 52
6 195
6 8
7 194
7 9
8 106
9 191
10 11
11 149
11 12
12 148
12 13
13 147
13 14
14 146
14 15
15 17
15 16
17 145
17 18
18 20
18 19
20 22
20 21
22 144
22 23
23 30
23 24
24 25
24 26
24 27
27 28
27 29
30 143
30 31
31 42
31 32
32 41
32 33
32 40
33 36
33 34
33 35
36 37
36 38
36 39
42 136
42 43
43 132
43 44
44 45
45 46
46 47
47 48
48 49
49 50
50 51
51 52
52 53
53 54
54 55
55 56
56 131
56 57
57 58
58 59
59 60
60 61
61 62
62 63
63 64
64 65
65 66
66 67
67 130
67 68
68 129
68 69
69 128
69 70
70 127
70 71
71 126
71 72
72 125
72 73
73 124
73 74
74 123
74 75
75 122
75 76
76 121
76 77
77 120
77 78
78 119
78 79
79 118
79 80
80 117
80 81
81 116
81 82
82 115
82 83
83 114
83 84
84 113
84 85
85 112
85 86
86 111
86 87
87 88
87 99
88 153
88 89
89 91
89 98
89 90
91 96
91 97
91 92
92 95
92 94
92 93
99 100
99 110
100 109
100 101
101 103
101 102
103 104
103 107
103 108
104 105
105 106
132 135
132 134
132 133
136 139
136 137
136 138
139 140
139 141
139 142
149 150
151 161
151 162
151 166
151 155
152 156
152 172
152 154
153 167
153 154
154 155
156 157
156 158
156 159
156 160
162 163
162 164
162 165
167 170
167 171
167 169
167 168
172 177
172 173
173 174
173 175
173 176
177 178
177 179
179 193
179 180
180 181
180 182
180 183
183 192
183 184
184 185
184 186
186 189
186 188
186 187
189 190
190 191
